Route #1: 1 9 10 3 6 95 89 92 90 94 98 19 12 1 
Route #2: 1 11 17 14 28 22 20 53 70 54 50 60 63 57 46 59 38 35 48 40 42 68 45 67 65 66 84 8 1 
Route #3: 1 87 85 32 43 64 80 78 58 56 26 1 
Route #4: 1 1 16 21 74 91 24 1 
Route #5: 1 7 5 18 13 79 49 34 41 29 61 31 47 55 33 69 51 88 86 82 1 
Route #6: 1 44 52 23 25 76 96 2 4 1 
Route #7: 1 83 36 77 72 73 71 1 
Route #8: 1 99 97 93 27 81 1 
Route #9: 1 100 15 1 
Route #10: 1 62 37 30 1 
Route #11: 1 39 1 
Route #12: 1 75 1 

Cost 4047.24
Time 1.2407


 * Another infos *

 Iterations: 101 Time: 1.2407 sec - 0.0207 min - 0.0003 horas
0.0000 h 0.0207 min
Problem dimension: 101
